c description: Graph 3-Colorability of <cnfgen.graphs.Graph object at 0x105e24fa0>
c generator: CNFgen (0.9.2)
c copyright: (C) 2012-2022 Massimo Lauria <massimo.lauria@uniroma1.it>
c url: https://massimolauria.net/cnfgen
c command line: cnfgen kcolor 3 grid 15 15
c
p cnf 675 2161
1 2 3 0
4 5 6 0
7 8 9 0
10 11 12 0
13 14 15 0
16 17 18 0
19 20 21 0
22 23 24 0
25 26 27 0
28 29 30 0
31 32 33 0
34 35 36 0
37 38 39 0
40 41 42 0
43 44 45 0
46 47 48 0
49 50 51 0
52 53 54 0
55 56 57 0
58 59 60 0
61 62 63 0
64 65 66 0
67 68 69 0
70 71 72 0
73 74 75 0
76 77 78 0
79 80 81 0
82 83 84 0
85 86 87 0
88 89 90 0
91 92 93 0
94 95 96 0
97 98 99 0
100 101 102 0
103 104 105 0
106 107 108 0
109 110 111 0
112 113 114 0
115 116 117 0
118 119 120 0
121 122 123 0
124 125 126 0
127 128 129 0
130 131 132 0
133 134 135 0
136 137 138 0
139 140 141 0
142 143 144 0
145 146 147 0
148 149 150 0
151 152 153 0
154 155 156 0
157 158 159 0
160 161 162 0
163 164 165 0
166 167 168 0
169 170 171 0
172 173 174 0
175 176 177 0
178 179 180 0
181 182 183 0
184 185 186 0
187 188 189 0
190 191 192 0
193 194 195 0
196 197 198 0
199 200 201 0
202 203 204 0
205 206 207 0
208 209 210 0
211 212 213 0
214 215 216 0
217 218 219 0
220 221 222 0
223 224 225 0
226 227 228 0
229 230 231 0
232 233 234 0
235 236 237 0
238 239 240 0
241 242 243 0
244 245 246 0
247 248 249 0
250 251 252 0
253 254 255 0
256 257 258 0
259 260 261 0
262 263 264 0
265 266 267 0
268 269 270 0
271 272 273 0
274 275 276 0
277 278 279 0
280 281 282 0
283 284 285 0
286 287 288 0
289 290 291 0
292 293 294 0
295 296 297 0
298 299 300 0
301 302 303 0
304 305 306 0
307 308 309 0
310 311 312 0
313 314 315 0
316 317 318 0
319 320 321 0
322 323 324 0
325 326 327 0
328 329 330 0
331 332 333 0
334 335 336 0
337 338 339 0
340 341 342 0
343 344 345 0
346 347 348 0
349 350 351 0
352 353 354 0
355 356 357 0
358 359 360 0
361 362 363 0
364 365 366 0
367 368 369 0
370 371 372 0
373 374 375 0
376 377 378 0
379 380 381 0
382 383 384 0
385 386 387 0
388 389 390 0
391 392 393 0
394 395 396 0
397 398 399 0
400 401 402 0
403 404 405 0
406 407 408 0
409 410 411 0
412 413 414 0
415 416 417 0
418 419 420 0
421 422 423 0
424 425 426 0
427 428 429 0
430 431 432 0
433 434 435 0
436 437 438 0
439 440 441 0
442 443 444 0
445 446 447 0
448 449 450 0
451 452 453 0
454 455 456 0
457 458 459 0
460 461 462 0
463 464 465 0
466 467 468 0
469 470 471 0
472 473 474 0
475 476 477 0
478 479 480 0
481 482 483 0
484 485 486 0
487 488 489 0
490 491 492 0
493 494 495 0
496 497 498 0
499 500 501 0
502 503 504 0
505 506 507 0
508 509 510 0
511 512 513 0
514 515 516 0
517 518 519 0
520 521 522 0
523 524 525 0
526 527 528 0
529 530 531 0
532 533 534 0
535 536 537 0
538 539 540 0
541 542 543 0
544 545 546 0
547 548 549 0
550 551 552 0
553 554 555 0
556 557 558 0
559 560 561 0
562 563 564 0
565 566 567 0
568 569 570 0
571 572 573 0
574 575 576 0
577 578 579 0
580 581 582 0
583 584 585 0
586 587 588 0
589 590 591 0
592 593 594 0
595 596 597 0
598 599 600 0
601 602 603 0
604 605 606 0
607 608 609 0
610 611 612 0
613 614 615 0
616 617 618 0
619 620 621 0
622 623 624 0
625 626 627 0
628 629 630 0
631 632 633 0
634 635 636 0
637 638 639 0
640 641 642 0
643 644 645 0
646 647 648 0
649 650 651 0
652 653 654 0
655 656 657 0
658 659 660 0
661 662 663 0
664 665 666 0
667 668 669 0
670 671 672 0
673 674 675 0
-1 -2 0
-1 -3 0
-2 -3 0
-4 -5 0
-4 -6 0
-5 -6 0
-7 -8 0
-7 -9 0
-8 -9 0
-10 -11 0
-10 -12 0
-11 -12 0
-13 -14 0
-13 -15 0
-14 -15 0
-16 -17 0
-16 -18 0
-17 -18 0
-19 -20 0
-19 -21 0
-20 -21 0
-22 -23 0
-22 -24 0
-23 -24 0
-25 -26 0
-25 -27 0
-26 -27 0
-28 -29 0
-28 -30 0
-29 -30 0
-31 -32 0
-31 -33 0
-32 -33 0
-34 -35 0
-34 -36 0
-35 -36 0
-37 -38 0
-37 -39 0
-38 -39 0
-40 -41 0
-40 -42 0
-41 -42 0
-43 -44 0
-43 -45 0
-44 -45 0
-46 -47 0
-46 -48 0
-47 -48 0
-49 -50 0
-49 -51 0
-50 -51 0
-52 -53 0
-52 -54 0
-53 -54 0
-55 -56 0
-55 -57 0
-56 -57 0
-58 -59 0
-58 -60 0
-59 -60 0
-61 -62 0
-61 -63 0
-62 -63 0
-64 -65 0
-64 -66 0
-65 -66 0
-67 -68 0
-67 -69 0
-68 -69 0
-70 -71 0
-70 -72 0
-71 -72 0
-73 -74 0
-73 -75 0
-74 -75 0
-76 -77 0
-76 -78 0
-77 -78 0
-79 -80 0
-79 -81 0
-80 -81 0
-82 -83 0
-82 -84 0
-83 -84 0
-85 -86 0
-85 -87 0
-86 -87 0
-88 -89 0
-88 -90 0
-89 -90 0
-91 -92 0
-91 -93 0
-92 -93 0
-94 -95 0
-94 -96 0
-95 -96 0
-97 -98 0
-97 -99 0
-98 -99 0
-100 -101 0
-100 -102 0
-101 -102 0
-103 -104 0
-103 -105 0
-104 -105 0
-106 -107 0
-106 -108 0
-107 -108 0
-109 -110 0
-109 -111 0
-110 -111 0
-112 -113 0
-112 -114 0
-113 -114 0
-115 -116 0
-115 -117 0
-116 -117 0
-118 -119 0
-118 -120 0
-119 -120 0
-121 -122 0
-121 -123 0
-122 -123 0
-124 -125 0
-124 -126 0
-125 -126 0
-127 -128 0
-127 -129 0
-128 -129 0
-130 -131 0
-130 -132 0
-131 -132 0
-133 -134 0
-133 -135 0
-134 -135 0
-136 -137 0
-136 -138 0
-137 -138 0
-139 -140 0
-139 -141 0
-140 -141 0
-142 -143 0
-142 -144 0
-143 -144 0
-145 -146 0
-145 -147 0
-146 -147 0
-148 -149 0
-148 -150 0
-149 -150 0
-151 -152 0
-151 -153 0
-152 -153 0
-154 -155 0
-154 -156 0
-155 -156 0
-157 -158 0
-157 -159 0
-158 -159 0
-160 -161 0
-160 -162 0
-161 -162 0
-163 -164 0
-163 -165 0
-164 -165 0
-166 -167 0
-166 -168 0
-167 -168 0
-169 -170 0
-169 -171 0
-170 -171 0
-172 -173 0
-172 -174 0
-173 -174 0
-175 -176 0
-175 -177 0
-176 -177 0
-178 -179 0
-178 -180 0
-179 -180 0
-181 -182 0
-181 -183 0
-182 -183 0
-184 -185 0
-184 -186 0
-185 -186 0
-187 -188 0
-187 -189 0
-188 -189 0
-190 -191 0
-190 -192 0
-191 -192 0
-193 -194 0
-193 -195 0
-194 -195 0
-196 -197 0
-196 -198 0
-197 -198 0
-199 -200 0
-199 -201 0
-200 -201 0
-202 -203 0
-202 -204 0
-203 -204 0
-205 -206 0
-205 -207 0
-206 -207 0
-208 -209 0
-208 -210 0
-209 -210 0
-211 -212 0
-211 -213 0
-212 -213 0
-214 -215 0
-214 -216 0
-215 -216 0
-217 -218 0
-217 -219 0
-218 -219 0
-220 -221 0
-220 -222 0
-221 -222 0
-223 -224 0
-223 -225 0
-224 -225 0
-226 -227 0
-226 -228 0
-227 -228 0
-229 -230 0
-229 -231 0
-230 -231 0
-232 -233 0
-232 -234 0
-233 -234 0
-235 -236 0
-235 -237 0
-236 -237 0
-238 -239 0
-238 -240 0
-239 -240 0
-241 -242 0
-241 -243 0
-242 -243 0
-244 -245 0
-244 -246 0
-245 -246 0
-247 -248 0
-247 -249 0
-248 -249 0
-250 -251 0
-250 -252 0
-251 -252 0
-253 -254 0
-253 -255 0
-254 -255 0
-256 -257 0
-256 -258 0
-257 -258 0
-259 -260 0
-259 -261 0
-260 -261 0
-262 -263 0
-262 -264 0
-263 -264 0
-265 -266 0
-265 -267 0
-266 -267 0
-268 -269 0
-268 -270 0
-269 -270 0
-271 -272 0
-271 -273 0
-272 -273 0
-274 -275 0
-274 -276 0
-275 -276 0
-277 -278 0
-277 -279 0
-278 -279 0
-280 -281 0
-280 -282 0
-281 -282 0
-283 -284 0
-283 -285 0
-284 -285 0
-286 -287 0
-286 -288 0
-287 -288 0
-289 -290 0
-289 -291 0
-290 -291 0
-292 -293 0
-292 -294 0
-293 -294 0
-295 -296 0
-295 -297 0
-296 -297 0
-298 -299 0
-298 -300 0
-299 -300 0
-301 -302 0
-301 -303 0
-302 -303 0
-304 -305 0
-304 -306 0
-305 -306 0
-307 -308 0
-307 -309 0
-308 -309 0
-310 -311 0
-310 -312 0
-311 -312 0
-313 -314 0
-313 -315 0
-314 -315 0
-316 -317 0
-316 -318 0
-317 -318 0
-319 -320 0
-319 -321 0
-320 -321 0
-322 -323 0
-322 -324 0
-323 -324 0
-325 -326 0
-325 -327 0
-326 -327 0
-328 -329 0
-328 -330 0
-329 -330 0
-331 -332 0
-331 -333 0
-332 -333 0
-334 -335 0
-334 -336 0
-335 -336 0
-337 -338 0
-337 -339 0
-338 -339 0
-340 -341 0
-340 -342 0
-341 -342 0
-343 -344 0
-343 -345 0
-344 -345 0
-346 -347 0
-346 -348 0
-347 -348 0
-349 -350 0
-349 -351 0
-350 -351 0
-352 -353 0
-352 -354 0
-353 -354 0
-355 -356 0
-355 -357 0
-356 -357 0
-358 -359 0
-358 -360 0
-359 -360 0
-361 -362 0
-361 -363 0
-362 -363 0
-364 -365 0
-364 -366 0
-365 -366 0
-367 -368 0
-367 -369 0
-368 -369 0
-370 -371 0
-370 -372 0
-371 -372 0
-373 -374 0
-373 -375 0
-374 -375 0
-376 -377 0
-376 -378 0
-377 -378 0
-379 -380 0
-379 -381 0
-380 -381 0
-382 -383 0
-382 -384 0
-383 -384 0
-385 -386 0
-385 -387 0
-386 -387 0
-388 -389 0
-388 -390 0
-389 -390 0
-391 -392 0
-391 -393 0
-392 -393 0
-394 -395 0
-394 -396 0
-395 -396 0
-397 -398 0
-397 -399 0
-398 -399 0
-400 -401 0
-400 -402 0
-401 -402 0
-403 -404 0
-403 -405 0
-404 -405 0
-406 -407 0
-406 -408 0
-407 -408 0
-409 -410 0
-409 -411 0
-410 -411 0
-412 -413 0
-412 -414 0
-413 -414 0
-415 -416 0
-415 -417 0
-416 -417 0
-418 -419 0
-418 -420 0
-419 -420 0
-421 -422 0
-421 -423 0
-422 -423 0
-424 -425 0
-424 -426 0
-425 -426 0
-427 -428 0
-427 -429 0
-428 -429 0
-430 -431 0
-430 -432 0
-431 -432 0
-433 -434 0
-433 -435 0
-434 -435 0
-436 -437 0
-436 -438 0
-437 -438 0
-439 -440 0
-439 -441 0
-440 -441 0
-442 -443 0
-442 -444 0
-443 -444 0
-445 -446 0
-445 -447 0
-446 -447 0
-448 -449 0
-448 -450 0
-449 -450 0
-451 -452 0
-451 -453 0
-452 -453 0
-454 -455 0
-454 -456 0
-455 -456 0
-457 -458 0
-457 -459 0
-458 -459 0
-460 -461 0
-460 -462 0
-461 -462 0
-463 -464 0
-463 -465 0
-464 -465 0
-466 -467 0
-466 -468 0
-467 -468 0
-469 -470 0
-469 -471 0
-470 -471 0
-472 -473 0
-472 -474 0
-473 -474 0
-475 -476 0
-475 -477 0
-476 -477 0
-478 -479 0
-478 -480 0
-479 -480 0
-481 -482 0
-481 -483 0
-482 -483 0
-484 -485 0
-484 -486 0
-485 -486 0
-487 -488 0
-487 -489 0
-488 -489 0
-490 -491 0
-490 -492 0
-491 -492 0
-493 -494 0
-493 -495 0
-494 -495 0
-496 -497 0
-496 -498 0
-497 -498 0
-499 -500 0
-499 -501 0
-500 -501 0
-502 -503 0
-502 -504 0
-503 -504 0
-505 -506 0
-505 -507 0
-506 -507 0
-508 -509 0
-508 -510 0
-509 -510 0
-511 -512 0
-511 -513 0
-512 -513 0
-514 -515 0
-514 -516 0
-515 -516 0
-517 -518 0
-517 -519 0
-518 -519 0
-520 -521 0
-520 -522 0
-521 -522 0
-523 -524 0
-523 -525 0
-524 -525 0
-526 -527 0
-526 -528 0
-527 -528 0
-529 -530 0
-529 -531 0
-530 -531 0
-532 -533 0
-532 -534 0
-533 -534 0
-535 -536 0
-535 -537 0
-536 -537 0
-538 -539 0
-538 -540 0
-539 -540 0
-541 -542 0
-541 -543 0
-542 -543 0
-544 -545 0
-544 -546 0
-545 -546 0
-547 -548 0
-547 -549 0
-548 -549 0
-550 -551 0
-550 -552 0
-551 -552 0
-553 -554 0
-553 -555 0
-554 -555 0
-556 -557 0
-556 -558 0
-557 -558 0
-559 -560 0
-559 -561 0
-560 -561 0
-562 -563 0
-562 -564 0
-563 -564 0
-565 -566 0
-565 -567 0
-566 -567 0
-568 -569 0
-568 -570 0
-569 -570 0
-571 -572 0
-571 -573 0
-572 -573 0
-574 -575 0
-574 -576 0
-575 -576 0
-577 -578 0
-577 -579 0
-578 -579 0
-580 -581 0
-580 -582 0
-581 -582 0
-583 -584 0
-583 -585 0
-584 -585 0
-586 -587 0
-586 -588 0
-587 -588 0
-589 -590 0
-589 -591 0
-590 -591 0
-592 -593 0
-592 -594 0
-593 -594 0
-595 -596 0
-595 -597 0
-596 -597 0
-598 -599 0
-598 -600 0
-599 -600 0
-601 -602 0
-601 -603 0
-602 -603 0
-604 -605 0
-604 -606 0
-605 -606 0
-607 -608 0
-607 -609 0
-608 -609 0
-610 -611 0
-610 -612 0
-611 -612 0
-613 -614 0
-613 -615 0
-614 -615 0
-616 -617 0
-616 -618 0
-617 -618 0
-619 -620 0
-619 -621 0
-620 -621 0
-622 -623 0
-622 -624 0
-623 -624 0
-625 -626 0
-625 -627 0
-626 -627 0
-628 -629 0
-628 -630 0
-629 -630 0
-631 -632 0
-631 -633 0
-632 -633 0
-634 -635 0
-634 -636 0
-635 -636 0
-637 -638 0
-637 -639 0
-638 -639 0
-640 -641 0
-640 -642 0
-641 -642 0
-643 -644 0
-643 -645 0
-644 -645 0
-646 -647 0
-646 -648 0
-647 -648 0
-649 -650 0
-649 -651 0
-650 -651 0
-652 -653 0
-652 -654 0
-653 -654 0
-655 -656 0
-655 -657 0
-656 -657 0
-658 -659 0
-658 -660 0
-659 -660 0
-661 -662 0
-661 -663 0
-662 -663 0
-664 -665 0
-664 -666 0
-665 -666 0
-667 -668 0
-667 -669 0
-668 -669 0
-670 -671 0
-670 -672 0
-671 -672 0
-673 -674 0
-673 -675 0
-674 -675 0
-1 -4 0
-2 -5 0
-3 -6 0
-1 -46 0
-2 -47 0
-3 -48 0
-4 -7 0
-5 -8 0
-6 -9 0
-4 -49 0
-5 -50 0
-6 -51 0
-7 -10 0
-8 -11 0
-9 -12 0
-7 -52 0
-8 -53 0
-9 -54 0
-10 -13 0
-11 -14 0
-12 -15 0
-10 -55 0
-11 -56 0
-12 -57 0
-13 -16 0
-14 -17 0
-15 -18 0
-13 -58 0
-14 -59 0
-15 -60 0
-16 -19 0
-17 -20 0
-18 -21 0
-16 -61 0
-17 -62 0
-18 -63 0
-19 -22 0
-20 -23 0
-21 -24 0
-19 -64 0
-20 -65 0
-21 -66 0
-22 -25 0
-23 -26 0
-24 -27 0
-22 -67 0
-23 -68 0
-24 -69 0
-25 -28 0
-26 -29 0
-27 -30 0
-25 -70 0
-26 -71 0
-27 -72 0
-28 -31 0
-29 -32 0
-30 -33 0
-28 -73 0
-29 -74 0
-30 -75 0
-31 -34 0
-32 -35 0
-33 -36 0
-31 -76 0
-32 -77 0
-33 -78 0
-34 -37 0
-35 -38 0
-36 -39 0
-34 -79 0
-35 -80 0
-36 -81 0
-37 -40 0
-38 -41 0
-39 -42 0
-37 -82 0
-38 -83 0
-39 -84 0
-40 -43 0
-41 -44 0
-42 -45 0
-40 -85 0
-41 -86 0
-42 -87 0
-43 -88 0
-44 -89 0
-45 -90 0
-46 -49 0
-47 -50 0
-48 -51 0
-46 -91 0
-47 -92 0
-48 -93 0
-49 -52 0
-50 -53 0
-51 -54 0
-49 -94 0
-50 -95 0
-51 -96 0
-52 -55 0
-53 -56 0
-54 -57 0
-52 -97 0
-53 -98 0
-54 -99 0
-55 -58 0
-56 -59 0
-57 -60 0
-55 -100 0
-56 -101 0
-57 -102 0
-58 -61 0
-59 -62 0
-60 -63 0
-58 -103 0
-59 -104 0
-60 -105 0
-61 -64 0
-62 -65 0
-63 -66 0
-61 -106 0
-62 -107 0
-63 -108 0
-64 -67 0
-65 -68 0
-66 -69 0
-64 -109 0
-65 -110 0
-66 -111 0
-67 -70 0
-68 -71 0
-69 -72 0
-67 -112 0
-68 -113 0
-69 -114 0
-70 -73 0
-71 -74 0
-72 -75 0
-70 -115 0
-71 -116 0
-72 -117 0
-73 -76 0
-74 -77 0
-75 -78 0
-73 -118 0
-74 -119 0
-75 -120 0
-76 -79 0
-77 -80 0
-78 -81 0
-76 -121 0
-77 -122 0
-78 -123 0
-79 -82 0
-80 -83 0
-81 -84 0
-79 -124 0
-80 -125 0
-81 -126 0
-82 -85 0
-83 -86 0
-84 -87 0
-82 -127 0
-83 -128 0
-84 -129 0
-85 -88 0
-86 -89 0
-87 -90 0
-85 -130 0
-86 -131 0
-87 -132 0
-88 -133 0
-89 -134 0
-90 -135 0
-91 -94 0
-92 -95 0
-93 -96 0
-91 -136 0
-92 -137 0
-93 -138 0
-94 -97 0
-95 -98 0
-96 -99 0
-94 -139 0
-95 -140 0
-96 -141 0
-97 -100 0
-98 -101 0
-99 -102 0
-97 -142 0
-98 -143 0
-99 -144 0
-100 -103 0
-101 -104 0
-102 -105 0
-100 -145 0
-101 -146 0
-102 -147 0
-103 -106 0
-104 -107 0
-105 -108 0
-103 -148 0
-104 -149 0
-105 -150 0
-106 -109 0
-107 -110 0
-108 -111 0
-106 -151 0
-107 -152 0
-108 -153 0
-109 -112 0
-110 -113 0
-111 -114 0
-109 -154 0
-110 -155 0
-111 -156 0
-112 -115 0
-113 -116 0
-114 -117 0
-112 -157 0
-113 -158 0
-114 -159 0
-115 -118 0
-116 -119 0
-117 -120 0
-115 -160 0
-116 -161 0
-117 -162 0
-118 -121 0
-119 -122 0
-120 -123 0
-118 -163 0
-119 -164 0
-120 -165 0
-121 -124 0
-122 -125 0
-123 -126 0
-121 -166 0
-122 -167 0
-123 -168 0
-124 -127 0
-125 -128 0
-126 -129 0
-124 -169 0
-125 -170 0
-126 -171 0
-127 -130 0
-128 -131 0
-129 -132 0
-127 -172 0
-128 -173 0
-129 -174 0
-130 -133 0
-131 -134 0
-132 -135 0
-130 -175 0
-131 -176 0
-132 -177 0
-133 -178 0
-134 -179 0
-135 -180 0
-136 -139 0
-137 -140 0
-138 -141 0
-136 -181 0
-137 -182 0
-138 -183 0
-139 -142 0
-140 -143 0
-141 -144 0
-139 -184 0
-140 -185 0
-141 -186 0
-142 -145 0
-143 -146 0
-144 -147 0
-142 -187 0
-143 -188 0
-144 -189 0
-145 -148 0
-146 -149 0
-147 -150 0
-145 -190 0
-146 -191 0
-147 -192 0
-148 -151 0
-149 -152 0
-150 -153 0
-148 -193 0
-149 -194 0
-150 -195 0
-151 -154 0
-152 -155 0
-153 -156 0
-151 -196 0
-152 -197 0
-153 -198 0
-154 -157 0
-155 -158 0
-156 -159 0
-154 -199 0
-155 -200 0
-156 -201 0
-157 -160 0
-158 -161 0
-159 -162 0
-157 -202 0
-158 -203 0
-159 -204 0
-160 -163 0
-161 -164 0
-162 -165 0
-160 -205 0
-161 -206 0
-162 -207 0
-163 -166 0
-164 -167 0
-165 -168 0
-163 -208 0
-164 -209 0
-165 -210 0
-166 -169 0
-167 -170 0
-168 -171 0
-166 -211 0
-167 -212 0
-168 -213 0
-169 -172 0
-170 -173 0
-171 -174 0
-169 -214 0
-170 -215 0
-171 -216 0
-172 -175 0
-173 -176 0
-174 -177 0
-172 -217 0
-173 -218 0
-174 -219 0
-175 -178 0
-176 -179 0
-177 -180 0
-175 -220 0
-176 -221 0
-177 -222 0
-178 -223 0
-179 -224 0
-180 -225 0
-181 -184 0
-182 -185 0
-183 -186 0
-181 -226 0
-182 -227 0
-183 -228 0
-184 -187 0
-185 -188 0
-186 -189 0
-184 -229 0
-185 -230 0
-186 -231 0
-187 -190 0
-188 -191 0
-189 -192 0
-187 -232 0
-188 -233 0
-189 -234 0
-190 -193 0
-191 -194 0
-192 -195 0
-190 -235 0
-191 -236 0
-192 -237 0
-193 -196 0
-194 -197 0
-195 -198 0
-193 -238 0
-194 -239 0
-195 -240 0
-196 -199 0
-197 -200 0
-198 -201 0
-196 -241 0
-197 -242 0
-198 -243 0
-199 -202 0
-200 -203 0
-201 -204 0
-199 -244 0
-200 -245 0
-201 -246 0
-202 -205 0
-203 -206 0
-204 -207 0
-202 -247 0
-203 -248 0
-204 -249 0
-205 -208 0
-206 -209 0
-207 -210 0
-205 -250 0
-206 -251 0
-207 -252 0
-208 -211 0
-209 -212 0
-210 -213 0
-208 -253 0
-209 -254 0
-210 -255 0
-211 -214 0
-212 -215 0
-213 -216 0
-211 -256 0
-212 -257 0
-213 -258 0
-214 -217 0
-215 -218 0
-216 -219 0
-214 -259 0
-215 -260 0
-216 -261 0
-217 -220 0
-218 -221 0
-219 -222 0
-217 -262 0
-218 -263 0
-219 -264 0
-220 -223 0
-221 -224 0
-222 -225 0
-220 -265 0
-221 -266 0
-222 -267 0
-223 -268 0
-224 -269 0
-225 -270 0
-226 -229 0
-227 -230 0
-228 -231 0
-226 -271 0
-227 -272 0
-228 -273 0
-229 -232 0
-230 -233 0
-231 -234 0
-229 -274 0
-230 -275 0
-231 -276 0
-232 -235 0
-233 -236 0
-234 -237 0
-232 -277 0
-233 -278 0
-234 -279 0
-235 -238 0
-236 -239 0
-237 -240 0
-235 -280 0
-236 -281 0
-237 -282 0
-238 -241 0
-239 -242 0
-240 -243 0
-238 -283 0
-239 -284 0
-240 -285 0
-241 -244 0
-242 -245 0
-243 -246 0
-241 -286 0
-242 -287 0
-243 -288 0
-244 -247 0
-245 -248 0
-246 -249 0
-244 -289 0
-245 -290 0
-246 -291 0
-247 -250 0
-248 -251 0
-249 -252 0
-247 -292 0
-248 -293 0
-249 -294 0
-250 -253 0
-251 -254 0
-252 -255 0
-250 -295 0
-251 -296 0
-252 -297 0
-253 -256 0
-254 -257 0
-255 -258 0
-253 -298 0
-254 -299 0
-255 -300 0
-256 -259 0
-257 -260 0
-258 -261 0
-256 -301 0
-257 -302 0
-258 -303 0
-259 -262 0
-260 -263 0
-261 -264 0
-259 -304 0
-260 -305 0
-261 -306 0
-262 -265 0
-263 -266 0
-264 -267 0
-262 -307 0
-263 -308 0
-264 -309 0
-265 -268 0
-266 -269 0
-267 -270 0
-265 -310 0
-266 -311 0
-267 -312 0
-268 -313 0
-269 -314 0
-270 -315 0
-271 -274 0
-272 -275 0
-273 -276 0
-271 -316 0
-272 -317 0
-273 -318 0
-274 -277 0
-275 -278 0
-276 -279 0
-274 -319 0
-275 -320 0
-276 -321 0
-277 -280 0
-278 -281 0
-279 -282 0
-277 -322 0
-278 -323 0
-279 -324 0
-280 -283 0
-281 -284 0
-282 -285 0
-280 -325 0
-281 -326 0
-282 -327 0
-283 -286 0
-284 -287 0
-285 -288 0
-283 -328 0
-284 -329 0
-285 -330 0
-286 -289 0
-287 -290 0
-288 -291 0
-286 -331 0
-287 -332 0
-288 -333 0
-289 -292 0
-290 -293 0
-291 -294 0
-289 -334 0
-290 -335 0
-291 -336 0
-292 -295 0
-293 -296 0
-294 -297 0
-292 -337 0
-293 -338 0
-294 -339 0
-295 -298 0
-296 -299 0
-297 -300 0
-295 -340 0
-296 -341 0
-297 -342 0
-298 -301 0
-299 -302 0
-300 -303 0
-298 -343 0
-299 -344 0
-300 -345 0
-301 -304 0
-302 -305 0
-303 -306 0
-301 -346 0
-302 -347 0
-303 -348 0
-304 -307 0
-305 -308 0
-306 -309 0
-304 -349 0
-305 -350 0
-306 -351 0
-307 -310 0
-308 -311 0
-309 -312 0
-307 -352 0
-308 -353 0
-309 -354 0
-310 -313 0
-311 -314 0
-312 -315 0
-310 -355 0
-311 -356 0
-312 -357 0
-313 -358 0
-314 -359 0
-315 -360 0
-316 -319 0
-317 -320 0
-318 -321 0
-316 -361 0
-317 -362 0
-318 -363 0
-319 -322 0
-320 -323 0
-321 -324 0
-319 -364 0
-320 -365 0
-321 -366 0
-322 -325 0
-323 -326 0
-324 -327 0
-322 -367 0
-323 -368 0
-324 -369 0
-325 -328 0
-326 -329 0
-327 -330 0
-325 -370 0
-326 -371 0
-327 -372 0
-328 -331 0
-329 -332 0
-330 -333 0
-328 -373 0
-329 -374 0
-330 -375 0
-331 -334 0
-332 -335 0
-333 -336 0
-331 -376 0
-332 -377 0
-333 -378 0
-334 -337 0
-335 -338 0
-336 -339 0
-334 -379 0
-335 -380 0
-336 -381 0
-337 -340 0
-338 -341 0
-339 -342 0
-337 -382 0
-338 -383 0
-339 -384 0
-340 -343 0
-341 -344 0
-342 -345 0
-340 -385 0
-341 -386 0
-342 -387 0
-343 -346 0
-344 -347 0
-345 -348 0
-343 -388 0
-344 -389 0
-345 -390 0
-346 -349 0
-347 -350 0
-348 -351 0
-346 -391 0
-347 -392 0
-348 -393 0
-349 -352 0
-350 -353 0
-351 -354 0
-349 -394 0
-350 -395 0
-351 -396 0
-352 -355 0
-353 -356 0
-354 -357 0
-352 -397 0
-353 -398 0
-354 -399 0
-355 -358 0
-356 -359 0
-357 -360 0
-355 -400 0
-356 -401 0
-357 -402 0
-358 -403 0
-359 -404 0
-360 -405 0
-361 -364 0
-362 -365 0
-363 -366 0
-361 -406 0
-362 -407 0
-363 -408 0
-364 -367 0
-365 -368 0
-366 -369 0
-364 -409 0
-365 -410 0
-366 -411 0
-367 -370 0
-368 -371 0
-369 -372 0
-367 -412 0
-368 -413 0
-369 -414 0
-370 -373 0
-371 -374 0
-372 -375 0
-370 -415 0
-371 -416 0
-372 -417 0
-373 -376 0
-374 -377 0
-375 -378 0
-373 -418 0
-374 -419 0
-375 -420 0
-376 -379 0
-377 -380 0
-378 -381 0
-376 -421 0
-377 -422 0
-378 -423 0
-379 -382 0
-380 -383 0
-381 -384 0
-379 -424 0
-380 -425 0
-381 -426 0
-382 -385 0
-383 -386 0
-384 -387 0
-382 -427 0
-383 -428 0
-384 -429 0
-385 -388 0
-386 -389 0
-387 -390 0
-385 -430 0
-386 -431 0
-387 -432 0
-388 -391 0
-389 -392 0
-390 -393 0
-388 -433 0
-389 -434 0
-390 -435 0
-391 -394 0
-392 -395 0
-393 -396 0
-391 -436 0
-392 -437 0
-393 -438 0
-394 -397 0
-395 -398 0
-396 -399 0
-394 -439 0
-395 -440 0
-396 -441 0
-397 -400 0
-398 -401 0
-399 -402 0
-397 -442 0
-398 -443 0
-399 -444 0
-400 -403 0
-401 -404 0
-402 -405 0
-400 -445 0
-401 -446 0
-402 -447 0
-403 -448 0
-404 -449 0
-405 -450 0
-406 -409 0
-407 -410 0
-408 -411 0
-406 -451 0
-407 -452 0
-408 -453 0
-409 -412 0
-410 -413 0
-411 -414 0
-409 -454 0
-410 -455 0
-411 -456 0
-412 -415 0
-413 -416 0
-414 -417 0
-412 -457 0
-413 -458 0
-414 -459 0
-415 -418 0
-416 -419 0
-417 -420 0
-415 -460 0
-416 -461 0
-417 -462 0
-418 -421 0
-419 -422 0
-420 -423 0
-418 -463 0
-419 -464 0
-420 -465 0
-421 -424 0
-422 -425 0
-423 -426 0
-421 -466 0
-422 -467 0
-423 -468 0
-424 -427 0
-425 -428 0
-426 -429 0
-424 -469 0
-425 -470 0
-426 -471 0
-427 -430 0
-428 -431 0
-429 -432 0
-427 -472 0
-428 -473 0
-429 -474 0
-430 -433 0
-431 -434 0
-432 -435 0
-430 -475 0
-431 -476 0
-432 -477 0
-433 -436 0
-434 -437 0
-435 -438 0
-433 -478 0
-434 -479 0
-435 -480 0
-436 -439 0
-437 -440 0
-438 -441 0
-436 -481 0
-437 -482 0
-438 -483 0
-439 -442 0
-440 -443 0
-441 -444 0
-439 -484 0
-440 -485 0
-441 -486 0
-442 -445 0
-443 -446 0
-444 -447 0
-442 -487 0
-443 -488 0
-444 -489 0
-445 -448 0
-446 -449 0
-447 -450 0
-445 -490 0
-446 -491 0
-447 -492 0
-448 -493 0
-449 -494 0
-450 -495 0
-451 -454 0
-452 -455 0
-453 -456 0
-451 -496 0
-452 -497 0
-453 -498 0
-454 -457 0
-455 -458 0
-456 -459 0
-454 -499 0
-455 -500 0
-456 -501 0
-457 -460 0
-458 -461 0
-459 -462 0
-457 -502 0
-458 -503 0
-459 -504 0
-460 -463 0
-461 -464 0
-462 -465 0
-460 -505 0
-461 -506 0
-462 -507 0
-463 -466 0
-464 -467 0
-465 -468 0
-463 -508 0
-464 -509 0
-465 -510 0
-466 -469 0
-467 -470 0
-468 -471 0
-466 -511 0
-467 -512 0
-468 -513 0
-469 -472 0
-470 -473 0
-471 -474 0
-469 -514 0
-470 -515 0
-471 -516 0
-472 -475 0
-473 -476 0
-474 -477 0
-472 -517 0
-473 -518 0
-474 -519 0
-475 -478 0
-476 -479 0
-477 -480 0
-475 -520 0
-476 -521 0
-477 -522 0
-478 -481 0
-479 -482 0
-480 -483 0
-478 -523 0
-479 -524 0
-480 -525 0
-481 -484 0
-482 -485 0
-483 -486 0
-481 -526 0
-482 -527 0
-483 -528 0
-484 -487 0
-485 -488 0
-486 -489 0
-484 -529 0
-485 -530 0
-486 -531 0
-487 -490 0
-488 -491 0
-489 -492 0
-487 -532 0
-488 -533 0
-489 -534 0
-490 -493 0
-491 -494 0
-492 -495 0
-490 -535 0
-491 -536 0
-492 -537 0
-493 -538 0
-494 -539 0
-495 -540 0
-496 -499 0
-497 -500 0
-498 -501 0
-496 -541 0
-497 -542 0
-498 -543 0
-499 -502 0
-500 -503 0
-501 -504 0
-499 -544 0
-500 -545 0
-501 -546 0
-502 -505 0
-503 -506 0
-504 -507 0
-502 -547 0
-503 -548 0
-504 -549 0
-505 -508 0
-506 -509 0
-507 -510 0
-505 -550 0
-506 -551 0
-507 -552 0
-508 -511 0
-509 -512 0
-510 -513 0
-508 -553 0
-509 -554 0
-510 -555 0
-511 -514 0
-512 -515 0
-513 -516 0
-511 -556 0
-512 -557 0
-513 -558 0
-514 -517 0
-515 -518 0
-516 -519 0
-514 -559 0
-515 -560 0
-516 -561 0
-517 -520 0
-518 -521 0
-519 -522 0
-517 -562 0
-518 -563 0
-519 -564 0
-520 -523 0
-521 -524 0
-522 -525 0
-520 -565 0
-521 -566 0
-522 -567 0
-523 -526 0
-524 -527 0
-525 -528 0
-523 -568 0
-524 -569 0
-525 -570 0
-526 -529 0
-527 -530 0
-528 -531 0
-526 -571 0
-527 -572 0
-528 -573 0
-529 -532 0
-530 -533 0
-531 -534 0
-529 -574 0
-530 -575 0
-531 -576 0
-532 -535 0
-533 -536 0
-534 -537 0
-532 -577 0
-533 -578 0
-534 -579 0
-535 -538 0
-536 -539 0
-537 -540 0
-535 -580 0
-536 -581 0
-537 -582 0
-538 -583 0
-539 -584 0
-540 -585 0
-541 -544 0
-542 -545 0
-543 -546 0
-541 -586 0
-542 -587 0
-543 -588 0
-544 -547 0
-545 -548 0
-546 -549 0
-544 -589 0
-545 -590 0
-546 -591 0
-547 -550 0
-548 -551 0
-549 -552 0
-547 -592 0
-548 -593 0
-549 -594 0
-550 -553 0
-551 -554 0
-552 -555 0
-550 -595 0
-551 -596 0
-552 -597 0
-553 -556 0
-554 -557 0
-555 -558 0
-553 -598 0
-554 -599 0
-555 -600 0
-556 -559 0
-557 -560 0
-558 -561 0
-556 -601 0
-557 -602 0
-558 -603 0
-559 -562 0
-560 -563 0
-561 -564 0
-559 -604 0
-560 -605 0
-561 -606 0
-562 -565 0
-563 -566 0
-564 -567 0
-562 -607 0
-563 -608 0
-564 -609 0
-565 -568 0
-566 -569 0
-567 -570 0
-565 -610 0
-566 -611 0
-567 -612 0
-568 -571 0
-569 -572 0
-570 -573 0
-568 -613 0
-569 -614 0
-570 -615 0
-571 -574 0
-572 -575 0
-573 -576 0
-571 -616 0
-572 -617 0
-573 -618 0
-574 -577 0
-575 -578 0
-576 -579 0
-574 -619 0
-575 -620 0
-576 -621 0
-577 -580 0
-578 -581 0
-579 -582 0
-577 -622 0
-578 -623 0
-579 -624 0
-580 -583 0
-581 -584 0
-582 -585 0
-580 -625 0
-581 -626 0
-582 -627 0
-583 -628 0
-584 -629 0
-585 -630 0
-586 -589 0
-587 -590 0
-588 -591 0
-586 -631 0
-587 -632 0
-588 -633 0
-589 -592 0
-590 -593 0
-591 -594 0
-589 -634 0
-590 -635 0
-591 -636 0
-592 -595 0
-593 -596 0
-594 -597 0
-592 -637 0
-593 -638 0
-594 -639 0
-595 -598 0
-596 -599 0
-597 -600 0
-595 -640 0
-596 -641 0
-597 -642 0
-598 -601 0
-599 -602 0
-600 -603 0
-598 -643 0
-599 -644 0
-600 -645 0
-601 -604 0
-602 -605 0
-603 -606 0
-601 -646 0
-602 -647 0
-603 -648 0
-604 -607 0
-605 -608 0
-606 -609 0
-604 -649 0
-605 -650 0
-606 -651 0
-607 -610 0
-608 -611 0
-609 -612 0
-607 -652 0
-608 -653 0
-609 -654 0
-610 -613 0
-611 -614 0
-612 -615 0
-610 -655 0
-611 -656 0
-612 -657 0
-613 -616 0
-614 -617 0
-615 -618 0
-613 -658 0
-614 -659 0
-615 -660 0
-616 -619 0
-617 -620 0
-618 -621 0
-616 -661 0
-617 -662 0
-618 -663 0
-619 -622 0
-620 -623 0
-621 -624 0
-619 -664 0
-620 -665 0
-621 -666 0
-622 -625 0
-623 -626 0
-624 -627 0
-622 -667 0
-623 -668 0
-624 -669 0
-625 -628 0
-626 -629 0
-627 -630 0
-625 -670 0
-626 -671 0
-627 -672 0
-628 -673 0
-629 -674 0
-630 -675 0
-631 -634 0
-632 -635 0
-633 -636 0
-634 -637 0
-635 -638 0
-636 -639 0
-637 -640 0
-638 -641 0
-639 -642 0
-640 -643 0
-641 -644 0
-642 -645 0
-643 -646 0
-644 -647 0
-645 -648 0
-646 -649 0
-647 -650 0
-648 -651 0
-649 -652 0
-650 -653 0
-651 -654 0
-652 -655 0
-653 -656 0
-654 -657 0
-655 -658 0
-656 -659 0
-657 -660 0
-658 -661 0
-659 -662 0
-660 -663 0
-661 -664 0
-662 -665 0
-663 -666 0
-664 -667 0
-665 -668 0
-666 -669 0
-667 -670 0
-668 -671 0
-669 -672 0
-670 -673 0
-671 -674 0
-672 -675 0
